************************************************************************
file with basedata            : j60_57.bas
initial value random generator: 1360082067
************************************************************************
projects                      :  1
jobs (incl. supersource/sink ):  62
horizon                       :  339
RESOURCES
  - renewable                 :  4   R
  - nonrenewable              :  0   N
  - doubly constrained        :  0   D
************************************************************************
PROJECT INFORMATION:
pronr.  #jobs rel.date duedate tardcost  MPM-Time
    1     60      0       82       26       82
************************************************************************
PRECEDENCE RELATIONS:
jobnr.    #modes  #successors   successors
   1        1          3           2   3   4
   2        1          3           5   8  16
   3        1          3           6   7  14
   4        1          2          20  29
   5        1          3          12  21  25
   6        1          3          10  12  28
   7        1          2           9  18
   8        1          3           9  13  15
   9        1          2          11  26
  10        1          3          23  29  33
  11        1          3          20  28  48
  12        1          2          17  19
  13        1          3          20  45  56
  14        1          3          17  22  43
  15        1          2          49  58
  16        1          2          22  44
  17        1          3          18  24  39
  18        1          3          34  41  42
  19        1          2          24  38
  20        1          2          21  37
  21        1          3          31  46  51
  22        1          3          31  36  46
  23        1          2          32  38
  24        1          3          26  27  35
  25        1          3          36  48  54
  26        1          2          30  40
  27        1          3          36  40  50
  28        1          3          31  34  38
  29        1          2          30  41
  30        1          3          34  42  53
  31        1          2          58  60
  32        1          2          35  37
  33        1          3          35  45  50
  34        1          1          59
  35        1          3          41  48  53
  36        1          2          49  61
  37        1          2          39  44
  38        1          3          39  40  44
  39        1          2          50  53
  40        1          2          42  51
  41        1          2          47  49
  42        1          2          47  56
  43        1          2          45  59
  44        1          2          46  47
  45        1          1          57
  46        1          1          52
  47        1          2          52  55
  48        1          2          55  61
  49        1          1          56
  50        1          2          51  52
  51        1          2          55  57
  52        1          1          54
  53        1          1          54
  54        1          1          57
  55        1          1          59
  56        1          1          60
  57        1          2          58  60
  58        1          1          61
  59        1          1          62
  60        1          1          62
  61        1          1          62
  62        1          0        
************************************************************************
REQUESTS/DURATIONS:
jobnr. mode duration  R 1  R 2  R 3  R 4
------------------------------------------------------------------------
  1      1     0       0    0    0    0
  2      1     4       1    5    0    0
  3      1    10       0    4    5    8
  4      1    10       3    4    9    3
  5      1     6       9   10    8    0
  6      1     9       8    9    7    6
  7      1     1       0    6    8    1
  8      1     6       0    6    6    2
  9      1     2       3    7    5    1
 10      1    10       8    0    7    1
 11      1    10       0    1    3    0
 12      1     9       6    0    5    8
 13      1     1       0    3    0    6
 14      1     3       3    8    9    7
 15      1    10      10    7    3    9
 16      1     8       0    0    0    4
 17      1     3      10    1    5    9
 18      1     5       8    1    8    4
 19      1     3       6    0    0    4
 20      1     3       1    0    3    0
 21      1    10       7    1    4    5
 22      1     2       1    3    5    4
 23      1     7       6    0   10   10
 24      1     5       3   10    2    7
 25      1     6       6    9   10    8
 26      1     4       0    2    6    8
 27      1     7       0    9    0   10
 28      1     8       0    2    3    8
 29      1     6      10    9    4    0
 30      1     1       5    5    2    2
 31      1     8       6    0    0    0
 32      1     3       0   10    7    1
 33      1     7       6    9    9    6
 34      1     8       6    5    0    0
 35      1     4       8    9    8    2
 36      1     7       5    6    0    0
 37      1     1       1    5    3   10
 38      1    10       9    6    4    6
 39      1     2       1    4   10    0
 40      1     1       4    2    4    0
 41      1     1       0    9    7    9
 42      1     3       1    0    3    6
 43      1     1       5    6    8    5
 44      1     3       5    2    8    0
 45      1     9       7    3    0    0
 46      1    10       0    9    7    0
 47      1    10       0    1    0    9
 48      1     4       0    5    6    2
 49      1     8      10    3    0    5
 50      1     2       1    7    0    4
 51      1     8       8    2    4    0
 52      1     6       3    7    9    1
 53      1     7       2    3    0   10
 54      1     4      10    9    0    0
 55      1     9       1    0    6    4
 56      1     7       3    0   10    5
 57      1     1       5    6    1    3
 58      1    10       4    7    9    5
 59      1     6       0    7   10    0
 60      1     9       0   10    5    0
 61      1     1       0    1    3    0
 62      1     0       0    0    0    0
************************************************************************
RESOURCEAVAILABILITIES:
  R 1  R 2  R 3  R 4
   17   16   15   16
************************************************************************
